c Random generated cnf formula, satisfiable: true
p cnf 10 50
2 5 3 0
6 5 3 0
10 7 -5 0
-10 3 -5 0
-5 -10 9 0
-7 -10 -2 0
-7 -6 -8 0
8 -2 7 0
4 7 6 0
-9 2 -7 0
-9 5 8 0
-10 -4 -2 0
-3 -2 8 0
-4 8 -3 0
7 2 10 0
1 2 -5 0
-9 2 1 0
4 7 8 0
-1 -7 -10 0
8 -10 -2 0
-6 5 -8 0
-5 1 8 0
-3 -1 10 0
8 -1 -3 0
7 -5 -4 0
-10 -8 3 0
5 7 8 0
-7 9 -4 0
-6 -4 2 0
10 7 9 0
4 -5 -2 0
1 -8 -2 0
4 1 -7 0
-6 4 -2 0
-5 2 9 0
2 9 -1 0
1 -5 -9 0
-7 -6 -3 0
-6 1 -9 0
-6 3 4 0
7 10 -6 0
-5 7 -3 0
-8 -1 4 0
-2 10 -6 0
4 8 -1 0
-4 -8 -5 0
3 -8 -1 0
-8 -9 10 0
6 -3 8 0
-6 -5 -1 0
